
Log started (V11.0.0) Sun Apr 13 13:00:40 2008

Tried aggregator 1 time.
Reduced MIP has 130 rows, 3001 columns, and 6030 nonzeros.
Presolve time =    0.02 sec.
Clique table members: 100.
MIP emphasis: balance optimality and feasibility.
MIP search method: dynamic search.
Parallel mode: none, using 1 thread.
Root relaxation solution time =    0.06 sec.

        Nodes                                         Cuts/
   Node  Left     Objective  IInf  Best Integer     Best Node    ItCnt     Gap

*     0+    0                         4752.0000       12.6099      524   99.73%
*     0+    0                           29.0000       12.6099      524   56.52%
      0     0       13.0000    39       29.0000      Fract: 6      533   55.17%
*     0+    0                           28.0000       13.0000      533   53.57%
      0     0       13.0000    51       28.0000       Cuts: 3      553   53.57%
*     0+    0                           25.0000       13.0000      553   48.00%
      0     0       13.0000    47       25.0000       Cuts: 2      585   48.00%
*     0+    0                           24.0000       13.0000      585   45.83%
      0     0       13.0082    53       24.0000   Impl Bds: 1      642   45.80%
*     0+    0                           23.0000       13.0082      642   43.44%
      0     0       13.9377    71       23.0000      Cuts: 25      703   39.40%
*     0+    0                           22.0000       13.9377      703   36.65%
      0     0       15.1000    58       22.0000      Cuts: 20      733   31.36%
*     0+    0                           21.0000       15.1000      733   28.10%
      0     0       16.2308    39       21.0000      Cuts: 11      750   22.71%
*     0+    0                           20.0000       16.2308      750   18.85%
      0     0       19.0000     8       20.0000      Cuts: 13      760    5.00%
      0     0       19.0000     8       20.0000       Cuts: 2      763    5.00%
*     0+    0                           19.0000       19.0000      763    0.00%

Clique cuts applied:  3
Cover cuts applied:  3
Implied bound cuts applied:  1
Flow cuts applied:  2
Mixed integer rounding cuts applied:  13
Zero-half cuts applied:  2

Solution pool: 10 solutions saved.

MIP - Integer optimal solution:  Objective = 1.9000000000e+001
Solution time =    0.48 sec.  Iterations = 763  Nodes = 0


Incumbent solution
Variable Name           Solution Value
Cmax                         19.000000
X_1_25                        1.000000
X_2_26                        1.000000
X_3_7                         1.000000
X_4_5                         1.000000
X_5_22                        1.000000
X_6_25                        1.000000
X_7_4                         1.000000
X_8_12                        1.000000
X_9_7                         1.000000
X_10_6                        1.000000
X_11_17                       1.000000
X_12_24                       1.000000
X_13_10                       1.000000
X_14_24                       1.000000
X_15_30                       1.000000
X_16_12                       1.000000
X_17_13                       1.000000
X_18_3                        1.000000
X_19_23                       1.000000
X_20_27                       1.000000
X_21_5                        1.000000
X_22_29                       1.000000
X_23_7                        1.000000
X_24_22                       1.000000
X_25_21                       1.000000
X_26_1                        1.000000
X_27_11                       1.000000
X_28_6                        1.000000
X_29_25                       1.000000
X_30_26                       1.000000
X_31_10                       1.000000
X_32_23                       1.000000
X_33_21                       1.000000
X_34_10                       1.000000
X_35_3                        1.000000
X_36_14                       1.000000
X_37_11                       1.000000
X_38_7                        1.000000
X_39_19                       1.000000
X_40_21                       1.000000
X_41_28                       1.000000
X_42_20                       1.000000
X_43_3                        1.000000
X_44_9                        1.000000
X_45_30                       1.000000
X_46_30                       1.000000
X_47_13                       1.000000
X_48_18                       1.000000
X_49_13                       1.000000
X_50_15                       1.000000
X_51_7                        1.000000
X_52_11                       1.000000
X_53_20                       1.000000
X_54_23                       1.000000
X_55_5                        1.000000
X_56_9                        1.000000
X_57_25                       1.000000
X_58_17                       1.000000
X_59_1                        1.000000
X_60_3                        1.000000
X_61_17                       1.000000
X_62_19                       1.000000
X_63_22                       1.000000
X_64_20                       1.000000
X_65_24                       1.000000
X_66_29                       1.000000
X_67_12                       1.000000
X_68_4                        1.000000
X_69_9                        1.000000
X_70_21                       1.000000
X_71_17                       1.000000
X_72_14                       1.000000
X_73_23                       1.000000
X_74_16                       1.000000
X_75_12                       1.000000
X_76_17                       1.000000
X_77_4                        1.000000
X_78_8                        1.000000
X_79_2                        1.000000
X_80_4                        1.000000
X_81_19                       1.000000
X_82_1                        1.000000
X_83_1                        1.000000
X_84_26                       1.000000
X_85_19                       1.000000
X_86_11                       1.000000
X_87_10                       1.000000
X_88_11                       1.000000
X_89_13                       1.000000
X_90_14                       1.000000
X_91_5                        1.000000
X_92_7                        1.000000
X_93_23                       1.000000
X_94_13                       1.000000
X_95_28                       1.000000
X_96_21                       1.000000
X_97_13                       1.000000
X_98_6                        1.000000
X_99_25                       1.000000
X_100_10                      1.000000
All other variables in the range 1-3001 are 0.
